20
2 0 34
4 1 38
4 3 34
5 1 27
5 3 23
6 2 32
7 0 7
7 1 25
7 4 33
8 3 4
8 7 31
9 0 30
9 1 3
9 3 35
9 5 35
10 1 15
10 3 10
10 4 18
10 9 11
11 3 15
11 4 6
11 8 29
11 9 26
11 10 10
12 0 37
12 1 38
12 2 10
12 4 3
12 6 24
12 7 15
12 8 15
12 10 27
13 0 18
13 3 7
13 6 2
13 8 14
13 11 5
14 1 25
14 3 1
14 4 30
14 5 18
14 6 15
14 7 14
14 13 16
15 3 7
15 8 21
15 11 37
15 13 36
16 1 31
16 3 16
16 6 17
16 7 26
16 10 22
16 12 33
16 14 4
17 0 4
17 1 2
17 4 39
17 5 16
17 6 37
17 7 6
17 9 31
17 12 37
17 13 4
17 15 26
18 0 14
18 2 35
18 5 36
18 7 31
18 10 7
18 13 21
18 15 17
18 17 23
19 0 31
19 3 14
19 6 22
19 8 18
19 11 15
19 17 9
